proyfinal/src/viki/013/andrea/andrea-localstore/experimentInOfficeAgust.take6/worker_11/ebd1b538-d33b-44ca-a65a-60fc50d4affe.als.cnf.out
Reading from standard input... Use '--help' for help.
============================[ Problem Statistics ]=============================
|                                                                             |
|  Number of variables:         87638                                         |
|  Number of clauses:          161767                                         |
|  Parse time:                   0.04 s                                       |
|                                                                             |
============================[ Search Statistics ]==============================
| Conflicts |          ORIGINAL         |          LEARNT          | Progress |
|           |    Vars  Clauses Literals |    Limit  Clauses Lit/Cl |          |
===============================================================================
|       100 |   63820   110358   275732 |    40464      100     20 | 27.178 % |
|       250 |   63820   110358   275732 |    44511      250     51 | 27.178 % |
|       475 |   63820   110358   275732 |    48962      475     43 | 27.178 % |
|       812 |   63820   110358   275732 |    53858      812     65 | 27.178 % |
|      1318 |   63820   110358   275732 |    59244     1318    116 | 27.178 % |
|      2077 |   63734   109964   274822 |    65168     2007    106 | 27.276 % |
|      3216 |   63734   109964   274822 |    71685     3146    101 | 27.276 % |
|      4924 |   63714   109880   274629 |    78854     3825    102 | 27.299 % |
|      7486 |   63696   109806   274458 |    86739     6385    110 | 27.319 % |
|     11330 |   63505   109038   272639 |    95413    10214    104 | 27.537 % |
|     17096 |   52726   108864   272220 |   104954    15967    107 | 39.837 % |
===============================================================================
restarts              : 65
conflicts             : 19422          (5623 /sec)
decisions             : 65063          (0.00 % random) (18837 /sec)
propagations          : 30302179       (8773259 /sec)
conflict literals     : 2015787        (50.08 % deleted)
Memory used           : 38.85 MB
CPU time              : 3.45392 s

INDETERMINATE
